n_res = 4;
rc = [ 14, 13, 13, 12 ];
n_tasks = 30;
d = [ 6, 4, 9, 5, 10, 10, 1, 1, 7, 2, 7, 6, 1, 10, 9, 4, 6, 10, 2, 5, 4, 7, 6, 4, 10, 4, 4, 3, 10, 8 ];
rr = [| 0, 0, 0, 1, 0, 0, 6, 10, 9, 0, 0, 3, 8, 0, 0, 0, 0, 0, 0, 0, 0, 0, 0, 0, 0, 7, 0, 5, 0, 0
      | 3, 3, 0, 0, 4, 3, 0, 0, 0, 0, 7, 0, 0, 0, 0, 8, 0, 2, 3, 3, 0, 0, 4, 0, 0, 0, 6, 0, 0, 1
      | 0, 0, 7, 0, 0, 0, 0, 0, 0, 0, 0, 0, 0, 0, 0, 0, 9, 0, 0, 0, 8, 2, 0, 0, 0, 0, 0, 0, 9, 0
      | 0, 0, 0, 0, 0, 0, 0, 0, 0, 2, 0, 0, 0, 3, 7, 0, 0, 0, 0, 0, 0, 0, 0, 8, 4, 0, 0, 0, 0, 0 |];
suc = [ { 2 }, 
        { 1 }, 
        { 4 }, 
        { 3 }, 
        { 6 }, 
        { 5 }, 
        { 8 }, 
        { 7 }, 
        { 10 }, 
        { 9 }, 
        { 12 }, 
        { 11 }, 
        { 14 }, 
        { 13 }, 
        { 16 }, 
        { 15 }, 
        { 18 }, 
        { 17 }, 
        { 20 }, 
        { 19 }, 
        { 22 }, 
        { 21 }, 
        { 24 }, 
        { 23 }, 
        { 26 }, 
        { 25 }, 
        { 28 }, 
        { 27 }, 
        { 30 }, 
        { 29 }]; 
